30
30
1
3
3600
500 558 562 871 931 933 1040 1114 1115 1118 1187 1268 1269 1361 1385 1447 1515 1588 1674 1778 1946 1963 2112 2221 2375 2644 2647 2649 2736 2891 
35 9 13 11 6 25 34 21 21 7 31 27 17 10 17 13 35 18 17 5 26 10 38 11 7 40 22 30 9 15 
